237
555.0 697.0 
668.0 611.0 
668.0 611.0 
668.0 611.0 
668.0 611.0 
686.0 539.0 
686.0 539.0 
555.0 697.0 
668.0 611.0 
668.0 611.0 
668.0 611.0 
668.0 611.0 
686.0 539.0 
555.0 697.0 
529.0 635.0 
668.0 611.0 
668.0 611.0 
668.0 611.0 
668.0 611.0 
686.0 539.0 
686.0 539.0 
555.0 697.0 
529.0 635.0 
668.0 611.0 
668.0 611.0 
668.0 611.0 
668.0 611.0 
686.0 539.0 
555.0 697.0 
668.0 611.0 
668.0 611.0 
668.0 611.0 
668.0 611.0 
686.0 539.0 
686.0 539.0 
555.0 697.0 
668.0 611.0 
668.0 611.0 
785.0 820.0 
668.0 611.0 
668.0 611.0 
785.0 820.0 
686.0 539.0 
686.0 539.0 
529.0 635.0 
668.0 611.0 
668.0 611.0 
668.0 611.0 
668.0 611.0 
686.0 539.0 
555.0 697.0 
668.0 611.0 
668.0 611.0 
668.0 611.0 
668.0 611.0 
686.0 539.0 
686.0 539.0 
529.0 635.0 
668.0 611.0 
668.0 611.0 
668.0 611.0 
668.0 611.0 
686.0 539.0 
686.0 539.0 
555.0 697.0 
529.0 635.0 
668.0 611.0 
668.0 611.0 
668.0 611.0 
668.0 611.0 
686.0 539.0 
686.0 539.0 
521.0 672.0 
521.0 672.0 
628.0 823.0 
546.0 753.0 
546.0 753.0 
628.0 823.0 
546.0 753.0 
628.0 823.0 
628.0 823.0 
628.0 823.0 
628.0 823.0 
628.0 823.0 
542.0 725.0 
628.0 823.0 
624.0 767.0 
542.0 725.0 
624.0 767.0 
624.0 767.0 
668.0 611.0 
668.0 611.0 
668.0 611.0 
668.0 611.0 
785.0 820.0 
785.0 820.0 
700.0 716.0 
785.0 820.0 
555.0 697.0 
529.0 635.0 
529.0 635.0 
555.0 697.0 
668.0 611.0 
668.0 611.0 
668.0 611.0 
668.0 611.0 
785.0 820.0 
700.0 716.0 
785.0 820.0 
785.0 820.0 
707.0 592.0 
628.0 823.0 
546.0 753.0 
521.0 672.0 
628.0 823.0 
521.0 672.0 
603.0 742.0 
602.0 761.0 
546.0 753.0 
546.0 753.0 
668.0 611.0 
668.0 611.0 
668.0 611.0 
668.0 611.0 
785.0 820.0 
700.0 716.0 
785.0 820.0 
785.0 820.0 
628.0 823.0 
603.0 742.0 
602.0 761.0 
521.0 672.0 
628.0 823.0 
521.0 672.0 
546.0 753.0 
546.0 753.0 
546.0 753.0 
668.0 611.0 
668.0 611.0 
668.0 611.0 
668.0 611.0 
785.0 820.0 
785.0 820.0 
700.0 716.0 
785.0 820.0 
555.0 697.0 
555.0 697.0 
529.0 635.0 
529.0 635.0 
668.0 611.0 
668.0 611.0 
668.0 611.0 
668.0 611.0 
785.0 820.0 
700.0 716.0 
785.0 820.0 
785.0 820.0 
707.0 592.0 
628.0 823.0 
546.0 753.0 
521.0 672.0 
603.0 742.0 
521.0 672.0 
628.0 823.0 
546.0 753.0 
546.0 753.0 
668.0 611.0 
668.0 611.0 
668.0 611.0 
668.0 611.0 
785.0 820.0 
700.0 716.0 
785.0 820.0 
785.0 820.0 
529.0 635.0 
555.0 697.0 
555.0 697.0 
529.0 635.0 
668.0 611.0 
668.0 611.0 
668.0 611.0 
668.0 611.0 
785.0 820.0 
700.0 716.0 
785.0 820.0 
785.0 820.0 
686.0 539.0 
686.0 539.0 
768.0 609.0 
628.0 823.0 
603.0 742.0 
521.0 672.0 
521.0 672.0 
602.0 761.0 
546.0 753.0 
628.0 823.0 
546.0 753.0 
668.0 611.0 
668.0 611.0 
668.0 611.0 
668.0 611.0 
521.0 672.0 
603.0 742.0 
602.0 761.0 
546.0 753.0 
628.0 823.0 
546.0 753.0 
546.0 753.0 
628.0 823.0 
521.0 672.0 
602.0 761.0 
668.0 611.0 
668.0 611.0 
668.0 611.0 
668.0 611.0 
785.0 820.0 
785.0 820.0 
700.0 716.0 
785.0 820.0 
546.0 753.0 
603.0 742.0 
521.0 672.0 
521.0 672.0 
602.0 761.0 
602.0 761.0 
546.0 753.0 
546.0 753.0 
628.0 823.0 
628.0 823.0 
668.0 611.0 
668.0 611.0 
668.0 611.0 
668.0 611.0 
785.0 820.0 
785.0 820.0 
700.0 716.0 
785.0 820.0 

0 479 84 116 470 469 467 471 478 80 82 0 
0 321 477 78 489 80 81 478 116 470 469 467 0 
0 321 477 78 489 80 81 478 116 467 469 470 0 
0 321 477 78 489 80 81 478 116 470 467 469 0 
0 321 477 78 489 80 81 478 116 469 467 470 0 
0 321 484 477 78 489 478 116 469 467 470 0 
0 321 484 477 78 489 478 116 467 469 470 0 
0 479 84 116 470 469 467 471 478 80 82 0 
0 321 477 78 489 80 81 478 116 469 467 470 0 
0 321 477 78 489 80 81 478 116 467 469 470 0 
0 321 477 78 489 80 81 478 116 470 467 469 0 
0 321 477 78 489 80 81 478 116 470 469 467 0 
0 321 484 477 78 489 478 116 467 469 470 0 
0 479 84 116 470 469 467 471 478 80 82 0 
0 479 84 116 470 467 469 471 478 80 0 
0 321 477 78 489 80 81 478 116 467 469 470 0 
0 321 477 78 489 80 81 478 116 469 467 470 0 
0 321 477 78 489 80 81 478 116 470 469 467 0 
0 321 477 78 489 80 81 478 116 470 467 469 0 
0 321 484 477 78 489 478 116 467 469 470 0 
0 321 484 477 78 489 478 116 469 467 470 0 
0 479 84 116 470 469 467 471 478 80 82 0 
0 479 84 116 470 467 469 471 478 80 0 
0 321 477 78 489 80 81 478 116 467 469 470 0 
0 321 477 78 489 80 81 478 116 470 469 467 0 
0 321 477 78 489 80 81 478 116 470 467 469 0 
0 321 477 78 489 80 81 478 116 469 467 470 0 
0 321 484 477 78 489 478 116 467 469 470 0 
0 479 84 116 470 469 467 471 478 80 82 0 
0 321 477 78 489 80 81 478 116 470 469 467 0 
0 321 477 78 489 80 81 478 116 469 467 470 0 
0 321 477 78 489 80 81 478 116 470 467 469 0 
0 321 477 78 489 80 81 478 116 467 469 470 0 
0 321 484 477 78 489 478 116 467 469 470 0 
0 321 484 477 78 489 478 116 469 467 470 0 
0 479 84 116 470 469 467 471 478 80 82 0 
0 321 477 78 489 80 81 478 116 470 469 467 0 
0 321 477 78 489 80 81 478 116 467 469 470 0 
0 484 84 82 116 470 467 469 478 81 80 489 78 477 321 0 
0 321 477 78 489 80 81 478 116 469 467 470 0 
0 321 477 78 489 80 81 478 116 470 467 469 0 
0 484 84 82 116 467 469 470 478 81 80 489 78 477 321 0 
0 321 484 477 78 489 478 116 469 467 470 0 
0 321 484 477 78 489 478 116 467 469 470 0 
0 479 84 116 470 467 469 471 478 80 0 
0 321 477 78 489 80 81 478 116 469 467 470 0 
0 321 477 78 489 80 81 478 116 470 467 469 0 
0 321 477 78 489 80 81 478 116 470 469 467 0 
0 321 477 78 489 80 81 478 116 467 469 470 0 
0 321 484 477 78 489 478 116 469 467 470 0 
0 479 84 116 470 469 467 471 478 80 82 0 
0 321 477 78 489 80 81 478 116 467 469 470 0 
0 321 477 78 489 80 81 478 116 470 467 469 0 
0 321 477 78 489 80 81 478 116 469 467 470 0 
0 321 477 78 489 80 81 478 116 470 469 467 0 
0 321 484 477 78 489 478 116 467 469 470 0 
0 321 484 477 78 489 478 116 469 467 470 0 
0 479 84 116 470 467 469 471 478 80 0 
0 321 477 78 489 80 81 478 116 470 467 469 0 
0 321 477 78 489 80 81 478 116 467 469 470 0 
0 321 477 78 489 80 81 478 116 469 467 470 0 
0 321 477 78 489 80 81 478 116 470 469 467 0 
0 321 484 477 78 489 478 116 469 467 470 0 
0 321 484 477 78 489 478 116 467 469 470 0 
0 479 84 116 470 469 467 471 478 80 82 0 
0 479 84 116 470 467 469 471 478 80 0 
0 321 477 78 489 80 81 478 116 467 469 470 0 
0 321 477 78 489 80 81 478 116 470 467 469 0 
0 321 477 78 489 80 81 478 116 469 467 470 0 
0 321 477 78 489 80 81 478 116 470 469 467 0 
0 321 484 477 78 489 478 116 467 469 470 0 
0 321 484 477 78 489 478 116 469 467 470 0 
0 321 484 486 82 80 478 116 469 467 470 0 
0 321 484 486 82 80 478 116 470 469 467 0 
0 321 484 486 82 80 478 116 467 469 470 84 479 0 
0 321 484 486 84 82 80 478 116 467 469 470 0 
0 321 484 486 84 82 80 478 116 470 469 467 0 
0 321 484 486 84 82 80 478 116 470 467 469 479 0 
0 321 484 486 84 82 80 478 116 469 467 470 0 
0 486 479 84 116 470 467 469 478 80 82 484 321 0 
0 486 479 84 116 469 467 470 478 80 82 484 321 0 
0 486 479 84 116 470 469 467 478 80 82 484 321 0 
0 479 84 116 467 469 470 478 80 82 486 484 321 0 
0 479 84 116 470 467 469 478 80 82 486 484 321 0 
0 479 84 116 469 467 470 478 80 82 486 484 0 
0 479 84 116 470 469 467 478 80 82 486 484 321 0 
0 479 84 82 116 470 469 467 478 80 484 321 0 
0 479 84 82 116 467 469 470 478 80 486 484 0 
0 479 84 82 116 469 467 470 478 80 484 321 0 
0 479 84 82 116 470 467 469 478 80 484 321 0 
0 321 477 78 489 80 81 478 116 470 467 469 0 
0 321 477 78 489 80 81 478 116 470 469 467 0 
0 321 477 78 489 80 81 478 116 467 469 470 0 
0 321 477 78 489 80 81 478 116 469 467 470 0 
0 484 84 82 116 467 469 470 478 81 80 489 78 477 321 0 
0 484 84 82 116 470 467 469 478 81 80 489 78 477 321 0 
0 484 84 82 116 469 467 470 478 80 78 477 321 0 
0 484 84 82 116 470 469 467 478 81 80 489 78 477 321 0 
0 479 84 116 470 469 467 471 478 80 82 0 
0 479 84 116 470 467 469 471 478 80 0 
0 479 84 116 470 467 469 471 478 80 0 
0 479 84 116 470 469 467 471 478 80 82 0 
0 321 477 78 489 80 81 478 116 469 467 470 0 
0 321 477 78 489 80 81 478 116 467 469 470 0 
0 321 477 78 489 80 81 478 116 470 469 467 0 
0 321 477 78 489 80 81 478 116 470 467 469 0 
0 484 84 82 116 467 469 470 478 81 80 489 78 477 321 0 
0 484 84 82 116 469 467 470 478 80 78 477 321 0 
0 484 84 82 116 470 469 467 478 81 80 489 78 477 321 0 
0 484 84 82 116 470 467 469 478 81 80 489 78 477 321 0 
0 479 84 116 470 469 467 478 489 78 477 484 0 
0 321 484 486 84 82 80 478 116 470 467 469 479 0 
0 321 484 486 84 82 80 478 116 470 469 467 0 
0 321 484 486 82 80 478 116 470 469 467 0 
0 321 484 486 82 80 478 116 467 469 470 84 479 0 
0 321 484 486 82 80 478 116 469 467 470 0 
0 321 484 486 82 80 478 116 470 467 469 479 0 
0 321 484 486 80 478 116 470 467 469 84 479 0 
0 321 484 486 84 82 80 478 116 469 467 470 0 
0 321 484 486 84 82 80 478 116 467 469 470 0 
0 321 477 78 489 80 81 478 116 470 467 469 0 
0 321 477 78 489 80 81 478 116 467 469 470 0 
0 321 477 78 489 80 81 478 116 470 469 467 0 
0 321 477 78 489 80 81 478 116 469 467 470 0 
0 484 84 82 116 467 469 470 478 81 80 489 78 477 321 0 
0 484 84 82 116 469 467 470 478 80 78 477 321 0 
0 484 84 82 116 470 467 469 478 81 80 489 78 477 321 0 
0 484 84 82 116 470 469 467 478 81 80 489 78 477 321 0 
0 321 484 486 82 80 478 116 467 469 470 84 479 0 
0 321 484 486 82 80 478 116 470 467 469 479 0 
0 321 484 486 80 478 116 470 467 469 84 479 0 
0 321 484 486 82 80 478 116 470 469 467 0 
0 321 484 486 84 82 80 478 116 470 467 469 479 0 
0 321 484 486 82 80 478 116 469 467 470 0 
0 321 484 486 84 82 80 478 116 469 467 470 0 
0 321 484 486 84 82 80 478 116 467 469 470 0 
0 321 484 486 84 82 80 478 116 470 469 467 0 
0 321 477 78 489 80 81 478 116 470 467 469 0 
0 321 477 78 489 80 81 478 116 469 467 470 0 
0 321 477 78 489 80 81 478 116 470 469 467 0 
0 321 477 78 489 80 81 478 116 467 469 470 0 
0 484 84 82 116 467 469 470 478 81 80 489 78 477 321 0 
0 484 84 82 116 470 467 469 478 81 80 489 78 477 321 0 
0 484 84 82 116 469 467 470 478 80 78 477 321 0 
0 484 84 82 116 470 469 467 478 81 80 489 78 477 321 0 
0 479 84 116 470 469 467 471 478 80 82 0 
0 479 84 116 470 469 467 471 478 80 82 0 
0 479 84 116 470 467 469 471 478 80 0 
0 479 84 116 470 467 469 471 478 80 0 
0 321 477 78 489 80 81 478 116 470 467 469 0 
0 321 477 78 489 80 81 478 116 467 469 470 0 
0 321 477 78 489 80 81 478 116 469 467 470 0 
0 321 477 78 489 80 81 478 116 470 469 467 0 
0 484 84 82 116 467 469 470 478 81 80 489 78 477 321 0 
0 484 84 82 116 469 467 470 478 80 78 477 321 0 
0 484 84 82 116 470 467 469 478 81 80 489 78 477 321 0 
0 484 84 82 116 470 469 467 478 81 80 489 78 477 321 0 
0 479 84 116 470 467 469 478 489 78 477 484 0 
0 321 484 486 84 82 80 478 116 470 467 469 479 0 
0 321 484 486 84 82 80 478 116 470 469 467 0 
0 321 484 486 82 80 478 116 470 469 467 0 
0 321 484 486 82 80 478 116 470 467 469 479 0 
0 321 484 486 82 80 478 116 469 467 470 0 
0 321 484 486 82 80 478 116 467 469 470 84 479 0 
0 321 484 486 84 82 80 478 116 467 469 470 0 
0 321 484 486 84 82 80 478 116 469 467 470 0 
0 321 477 78 489 80 81 478 116 470 467 469 0 
0 321 477 78 489 80 81 478 116 469 467 470 0 
0 321 477 78 489 80 81 478 116 467 469 470 0 
0 321 477 78 489 80 81 478 116 470 469 467 0 
0 484 84 82 116 467 469 470 478 81 80 489 78 477 321 0 
0 484 84 82 116 469 467 470 478 80 78 477 321 0 
0 484 84 82 116 470 467 469 478 81 80 489 78 477 321 0 
0 484 84 82 116 470 469 467 478 81 80 489 78 477 321 0 
0 479 84 116 470 467 469 471 478 80 0 
0 479 84 116 470 469 467 471 478 80 82 0 
0 479 84 116 470 469 467 471 478 80 82 0 
0 479 84 116 470 467 469 471 478 80 0 
0 321 477 78 489 80 81 478 116 469 467 470 0 
0 321 477 78 489 80 81 478 116 470 469 467 0 
0 321 477 78 489 80 81 478 116 470 467 469 0 
0 321 477 78 489 80 81 478 116 467 469 470 0 
0 484 84 82 116 467 469 470 478 81 80 489 78 477 321 0 
0 484 84 82 116 469 467 470 478 80 78 477 321 0 
0 484 84 82 116 470 469 467 478 81 80 489 78 477 321 0 
0 484 84 82 116 470 467 469 478 81 80 489 78 477 321 0 
0 321 484 477 78 489 478 116 469 467 470 0 
0 321 484 477 78 489 478 116 470 469 467 0 
0 321 484 477 78 489 478 116 470 467 469 479 0 
0 321 484 486 82 80 478 116 467 469 470 84 479 0 
0 321 484 486 82 80 478 116 470 467 469 479 0 
0 321 484 486 82 80 478 116 469 467 470 0 
0 321 484 486 82 80 478 116 470 469 467 0 
0 321 484 486 80 478 116 470 469 467 84 479 0 
0 321 484 486 84 82 80 478 116 467 469 470 0 
0 321 484 486 84 82 80 478 116 470 467 469 479 0 
0 321 484 486 84 82 80 478 116 470 469 467 0 
0 321 477 78 489 80 81 478 116 469 467 470 0 
0 321 477 78 489 80 81 478 116 467 469 470 0 
0 321 477 78 489 80 81 478 116 470 467 469 0 
0 321 477 78 489 80 81 478 116 470 469 467 0 
0 321 484 486 82 80 478 116 469 467 470 0 
0 321 484 486 82 80 478 116 470 467 469 479 0 
0 321 484 486 80 478 116 470 467 469 84 479 0 
0 321 484 486 84 82 80 478 116 469 467 470 0 
0 321 484 486 84 82 80 478 116 470 467 469 479 0 
0 321 484 486 84 82 80 478 116 470 469 467 0 
0 321 484 486 84 82 80 478 116 467 469 470 0 
0 321 484 486 82 80 478 116 467 469 470 84 479 0 
0 321 484 486 82 80 478 116 470 469 467 0 
0 321 484 486 80 478 116 470 469 467 84 479 0 
0 321 477 78 489 80 81 478 116 469 467 470 0 
0 321 477 78 489 80 81 478 116 467 469 470 0 
0 321 477 78 489 80 81 478 116 470 469 467 0 
0 321 477 78 489 80 81 478 116 470 467 469 0 
0 484 84 82 116 467 469 470 478 81 80 489 78 477 321 0 
0 484 84 82 116 470 467 469 478 81 80 489 78 477 321 0 
0 484 84 82 116 469 467 470 478 80 78 477 321 0 
0 484 84 82 116 470 469 467 478 81 80 489 78 477 321 0 
0 321 484 486 84 82 80 478 116 470 469 467 0 
0 321 484 486 82 80 478 116 470 467 469 479 0 
0 321 484 486 82 80 478 116 469 467 470 0 
0 321 484 486 82 80 478 116 470 469 467 0 
0 321 484 486 80 478 116 470 469 467 84 479 0 
0 321 484 486 80 478 116 470 467 469 84 479 0 
0 321 484 486 84 82 80 478 116 469 467 470 0 
0 321 484 486 84 82 80 478 116 467 469 470 0 
0 321 484 486 82 80 478 116 467 469 470 84 479 0 
0 321 484 486 84 82 80 478 116 470 467 469 479 0 
0 321 477 78 489 80 81 478 116 470 467 469 0 
0 321 477 78 489 80 81 478 116 469 467 470 0 
0 321 477 78 489 80 81 478 116 467 469 470 0 
0 321 477 78 489 80 81 478 116 470 469 467 0 
0 484 84 82 116 467 469 470 478 81 80 489 78 477 321 0 
0 484 84 82 116 470 467 469 478 81 80 489 78 477 321 0 
0 484 84 82 116 469 467 470 478 80 78 477 321 0 
0 484 84 82 116 470 469 467 478 81 80 489 78 477 321 0 
